; benchmark generated from python API
(set-info :status unknown)
(declare-datatypes ((RealState 0)) (((RMk1 (rval1 Real)) (RMk2 (rval2 Real)))))
 (declare-fun yuscore2dollarskuscore28 () Real)
(declare-fun t15uscore0dollarskuscore1 () Real)
(declare-fun stuscore2dollarskuscore28 () Real)
(declare-fun xuscore2dollarskuscore20 () Real)
(assert
 (let (($x192 (exists ((ts15uscore1_st RealState) (val!90 Real) )(let (($x172 (= stuscore2dollarskuscore28 1.0)))
 (let (($x96 (or $x172 (<= (+ t15uscore0dollarskuscore1 yuscore2dollarskuscore28) 12.0))))
 (let (($x66 (>= yuscore2dollarskuscore28 (- 5.0 (* 2.0 xuscore2dollarskuscore20)))))
 (let (($x33 (<= yuscore2dollarskuscore28 12.0)))
 (let (($x86 (>= yuscore2dollarskuscore28 1.0)))
 (let (($x132 (= stuscore2dollarskuscore28 0.0)))
 (let (($x208 (< yuscore2dollarskuscore28 10.0)))
 (let (($x190 (>= t15uscore0dollarskuscore1 0.0)))
 (let (($x243 (<= (+ (rval2 ts15uscore1_st) yuscore2dollarskuscore28) 10.0)))
 (let (($x194 (and (<= 0.0 (rval2 ts15uscore1_st)) (<= (rval2 ts15uscore1_st) t15uscore0dollarskuscore1))))
 (let (($x93 (and (and (and (and (and (=> $x194 $x243) $x190) $x208) $x132) $x86) $x33)))
 (let (($x94 (not (= ts15uscore1_st (RMk1 val!90)))))
 (and $x94 (=> (and $x93 $x66) $x96)))))))))))))))
 ))
 (not $x192)))
(check-sat)
